nNurses = 190;
nHours = 37;
minHours = 8;
maxHours = 10;
maxConsec = 8;
maxPresence = 33;
demand = [8, 10, 7, 5, 9, 7, 12, 8, 10, 9, 9, 8, 10, 12, 8, 6, 11, 7, 7, 10, 12, 15, 18, 19, 23, 21, 21, 19, 16, 14, 17, 19, 24, 26, 27, 26, 24];
